TYPE : Vertex Cover
DIMENSION: 30
EDGE_DATA_SECTION:
0 7
0 10
0 12
0 13
0 24
0 27
1 2
1 7
1 19
2 7
2 25
3 9
3 13
3 18
3 28
3 29
4 8
4 9
4 13
4 28
4 29
5 12
5 22
5 26
5 27
6 8
6 18
6 23
7 16
7 21
8 24
8 26
9 13
9 25
9 29
11 16
11 28
11 29
12 22
13 21
13 25
15 17
15 18
15 22
15 24
16 21
16 23
17 28
18 27
19 24
19 26
20 21
21 22
21 23
21 24
22 25
22 28
25 28
-1
VERTEX_DEGREE:
6.0 3.0 3.0 5.0 5.0 4.0 3.0 5.0 4.0 5.0 1.0 3.0 3.0 6.0 0.0 4.0 4.0 2.0 4.0 3.0 1.0 7.0 6.0 3.0 5.0 5.0 3.0 3.0 6.0 4.0
VERTEX_COVER:
0 2 5 7 8 9 11 13 15 18 19 21 22 23 28 29
EOF
